40
61
39
45
25
46
27
17
43
18
4
19
24
15
57
35
70
29
23
47
58
37
16
1
36
13
31
69
38
59
22
63
66
2
7
32
3
8
26
55
49
28
14
20
30
44
68
41
42
6
53
5
10
52
50
51
56
65
64
11
67
48
54
62
33
60
12
21
34
9
40
